
(set-option :produce-models true)
(set-option :inline-size-limit 10000)

(declare-const var0 String)

(push 1)
(assert (str.in.re var0 (re.* (re.range "\x01" "\xff"))))
(assert (str.in.re var0 (re.++ (re.*? re.allchar) (re.++ (re.++ ((_ re.capture 1) (re.++ (re.inter (re.diff (re.range "\x01" "\xff") (str.to.re "_")) (re.diff (re.range "\x01" "\xff") (str.to.re "."))) ((_ re.loop 0 2) ((_ re.capture 2) (re.++ (re.* (re.union (re.range "a" "z") (re.union (re.range "A" "Z") (re.union (re.range "0" "9") (str.to.re "_"))))) (re.++ (re.opt (str.to.re ".")) (re.++ (re.+ (re.union (re.range "a" "z") (re.union (re.range "A" "Z") (re.union (re.range "0" "9") (str.to.re "_"))))) (re.diff (re.range "\x01" "\xff") (str.to.re "_"))))))))) (re.++ (str.to.re "@") ((_ re.capture 3) (re.++ (re.+ (re.union (re.range "a" "z") (re.range "0" "9"))) (re.++ (str.to.re ".") ((_ re.capture 4) (re.union ((_ re.loop 2 3) (re.range "a" "z")) (re.++ ((_ re.loop 2 3) (re.range "a" "z")) (re.++ (str.to.re ".") ((_ re.loop 2 3) (re.range "a" "z"))))))))))) re.all))))	; match!==null
(assert (not (str.in.re ((_ str.extract 1) var0 (re.++ (re.*? re.allchar) (re.++ (re.++ ((_ re.capture 1) (re.++ (re.inter (re.diff (re.range "\x01" "\xff") (str.to.re "_")) (re.diff (re.range "\x01" "\xff") (str.to.re "."))) ((_ re.loop 0 2) ((_ re.capture 2) (re.++ (re.* (re.union (re.range "a" "z") (re.union (re.range "A" "Z") (re.union (re.range "0" "9") (str.to.re "_"))))) (re.++ (re.opt (str.to.re ".")) (re.++ (re.+ (re.union (re.range "a" "z") (re.union (re.range "A" "Z") (re.union (re.range "0" "9") (str.to.re "_"))))) (re.diff (re.range "\x01" "\xff") (str.to.re "_"))))))))) (re.++ (str.to.re "@") ((_ re.capture 3) (re.++ (re.+ (re.union (re.range "a" "z") (re.range "0" "9"))) (re.++ (str.to.re ".") ((_ re.capture 4) (re.union ((_ re.loop 2 3) (re.range "a" "z")) (re.++ ((_ re.loop 2 3) (re.range "a" "z")) (re.++ (str.to.re ".") ((_ re.loop 2 3) (re.range "a" "z"))))))))))) re.all))) (str.to.re "\x00"))))
;match[1]!==null
(assert (str.in.re ((_ str.extract 1) var0 (re.++ (re.*? re.allchar) (re.++ (re.++ ((_ re.capture 1) (re.++ (re.inter (re.diff (re.range "\x01" "\xff") (str.to.re "_")) (re.diff (re.range "\x01" "\xff") (str.to.re "."))) ((_ re.loop 0 2) ((_ re.capture 2) (re.++ (re.* (re.union (re.range "a" "z") (re.union (re.range "A" "Z") (re.union (re.range "0" "9") (str.to.re "_"))))) (re.++ (re.opt (str.to.re ".")) (re.++ (re.+ (re.union (re.range "a" "z") (re.union (re.range "A" "Z") (re.union (re.range "0" "9") (str.to.re "_"))))) (re.diff (re.range "\x01" "\xff") (str.to.re "_"))))))))) (re.++ (str.to.re "@") ((_ re.capture 3) (re.++ (re.+ (re.union (re.range "a" "z") (re.range "0" "9"))) (re.++ (str.to.re ".") ((_ re.capture 4) (re.union ((_ re.loop 2 3) (re.range "a" "z")) (re.++ ((_ re.loop 2 3) (re.range "a" "z")) (re.++ (str.to.re ".") ((_ re.loop 2 3) (re.range "a" "z"))))))))))) re.all))) (re.++ re.all(re.+ (re.range "a" "z")) re.all) ))
;/[a-z]+/.test(match[1]) == true
(check-sat)
(get-model)
(pop 1)
(push 1)
(assert (str.in.re var0 (re.* (re.range "\x01" "\xff"))))
(assert (str.in.re var0 (re.++ (re.*? re.allchar) (re.++ (re.++ ((_ re.capture 1) (re.++ (re.inter (re.diff (re.range "\x01" "\xff") (str.to.re "_")) (re.diff (re.range "\x01" "\xff") (str.to.re "."))) ((_ re.loop 0 2) ((_ re.capture 2) (re.++ (re.* (re.union (re.range "a" "z") (re.union (re.range "A" "Z") (re.union (re.range "0" "9") (str.to.re "_"))))) (re.++ (re.opt (str.to.re ".")) (re.++ (re.+ (re.union (re.range "a" "z") (re.union (re.range "A" "Z") (re.union (re.range "0" "9") (str.to.re "_"))))) (re.diff (re.range "\x01" "\xff") (str.to.re "_"))))))))) (re.++ (str.to.re "@") ((_ re.capture 3) (re.++ (re.+ (re.union (re.range "a" "z") (re.range "0" "9"))) (re.++ (str.to.re ".") ((_ re.capture 4) (re.union ((_ re.loop 2 3) (re.range "a" "z")) (re.++ ((_ re.loop 2 3) (re.range "a" "z")) (re.++ (str.to.re ".") ((_ re.loop 2 3) (re.range "a" "z"))))))))))) re.all))))	; match!==null
(assert (not (str.in.re ((_ str.extract 1) var0 (re.++ (re.*? re.allchar) (re.++ (re.++ ((_ re.capture 1) (re.++ (re.inter (re.diff (re.range "\x01" "\xff") (str.to.re "_")) (re.diff (re.range "\x01" "\xff") (str.to.re "."))) ((_ re.loop 0 2) ((_ re.capture 2) (re.++ (re.* (re.union (re.range "a" "z") (re.union (re.range "A" "Z") (re.union (re.range "0" "9") (str.to.re "_"))))) (re.++ (re.opt (str.to.re ".")) (re.++ (re.+ (re.union (re.range "a" "z") (re.union (re.range "A" "Z") (re.union (re.range "0" "9") (str.to.re "_"))))) (re.diff (re.range "\x01" "\xff") (str.to.re "_"))))))))) (re.++ (str.to.re "@") ((_ re.capture 3) (re.++ (re.+ (re.union (re.range "a" "z") (re.range "0" "9"))) (re.++ (str.to.re ".") ((_ re.capture 4) (re.union ((_ re.loop 2 3) (re.range "a" "z")) (re.++ ((_ re.loop 2 3) (re.range "a" "z")) (re.++ (str.to.re ".") ((_ re.loop 2 3) (re.range "a" "z"))))))))))) re.all))) (str.to.re "\x00"))))	
;match[1]!==null
(assert (not (str.in.re ((_ str.extract 1) var0 (re.++ (re.*? re.allchar) (re.++ (re.++ ((_ re.capture 1) (re.++ (re.inter (re.diff (re.range "\x01" "\xff") (str.to.re "_")) (re.diff (re.range "\x01" "\xff") (str.to.re "."))) ((_ re.loop 0 2) ((_ re.capture 2) (re.++ (re.* (re.union (re.range "a" "z") (re.union (re.range "A" "Z") (re.union (re.range "0" "9") (str.to.re "_"))))) (re.++ (re.opt (str.to.re ".")) (re.++ (re.+ (re.union (re.range "a" "z") (re.union (re.range "A" "Z") (re.union (re.range "0" "9") (str.to.re "_"))))) (re.diff (re.range "\x01" "\xff") (str.to.re "_"))))))))) (re.++ (str.to.re "@") ((_ re.capture 3) (re.++ (re.+ (re.union (re.range "a" "z") (re.range "0" "9"))) (re.++ (str.to.re ".") ((_ re.capture 4) (re.union ((_ re.loop 2 3) (re.range "a" "z")) (re.++ ((_ re.loop 2 3) (re.range "a" "z")) (re.++ (str.to.re ".") ((_ re.loop 2 3) (re.range "a" "z"))))))))))) re.all))) (re.++ re.all(re.+ (re.range "a" "z")) re.all) )))
;/[a-z]+/.test(match[1]) == false	
(check-sat)
(get-model)
(pop 1)
(push 1)
(assert (str.in.re var0 (re.* (re.range "\x01" "\xff"))))
(assert (str.in.re var0 (re.++ (re.*? re.allchar) (re.++ (re.++ ((_ re.capture 1) (re.++ (re.inter (re.diff (re.range "\x01" "\xff") (str.to.re "_")) (re.diff (re.range "\x01" "\xff") (str.to.re "."))) ((_ re.loop 0 2) ((_ re.capture 2) (re.++ (re.* (re.union (re.range "a" "z") (re.union (re.range "A" "Z") (re.union (re.range "0" "9") (str.to.re "_"))))) (re.++ (re.opt (str.to.re ".")) (re.++ (re.+ (re.union (re.range "a" "z") (re.union (re.range "A" "Z") (re.union (re.range "0" "9") (str.to.re "_"))))) (re.diff (re.range "\x01" "\xff") (str.to.re "_"))))))))) (re.++ (str.to.re "@") ((_ re.capture 3) (re.++ (re.+ (re.union (re.range "a" "z") (re.range "0" "9"))) (re.++ (str.to.re ".") ((_ re.capture 4) (re.union ((_ re.loop 2 3) (re.range "a" "z")) (re.++ ((_ re.loop 2 3) (re.range "a" "z")) (re.++ (str.to.re ".") ((_ re.loop 2 3) (re.range "a" "z"))))))))))) re.all))))	; match!==null
(assert (str.in.re ((_ str.extract 1) var0 (re.++ (re.*? re.allchar) (re.++ (re.++ ((_ re.capture 1) (re.++ (re.inter (re.diff (re.range "\x01" "\xff") (str.to.re "_")) (re.diff (re.range "\x01" "\xff") (str.to.re "."))) ((_ re.loop 0 2) ((_ re.capture 2) (re.++ (re.* (re.union (re.range "a" "z") (re.union (re.range "A" "Z") (re.union (re.range "0" "9") (str.to.re "_"))))) (re.++ (re.opt (str.to.re ".")) (re.++ (re.+ (re.union (re.range "a" "z") (re.union (re.range "A" "Z") (re.union (re.range "0" "9") (str.to.re "_"))))) (re.diff (re.range "\x01" "\xff") (str.to.re "_"))))))))) (re.++ (str.to.re "@") ((_ re.capture 3) (re.++ (re.+ (re.union (re.range "a" "z") (re.range "0" "9"))) (re.++ (str.to.re ".") ((_ re.capture 4) (re.union ((_ re.loop 2 3) (re.range "a" "z")) (re.++ ((_ re.loop 2 3) (re.range "a" "z")) (re.++ (str.to.re ".") ((_ re.loop 2 3) (re.range "a" "z"))))))))))) re.all))) (str.to.re "\x00")))
;match[1]==null
(check-sat)
(get-model)
(pop 1)
(push 1)
(assert (str.in.re var0 (re.* (re.range "\x01" "\xff"))))
(assert (not (str.in.re var0 (re.++ (re.*? re.allchar) (re.++ (re.++ ((_ re.capture 1) (re.++ (re.inter (re.diff (re.range "\x01" "\xff") (str.to.re "_")) (re.diff (re.range "\x01" "\xff") (str.to.re "."))) ((_ re.loop 0 2) ((_ re.capture 2) (re.++ (re.* (re.union (re.range "a" "z") (re.union (re.range "A" "Z") (re.union (re.range "0" "9") (str.to.re "_"))))) (re.++ (re.opt (str.to.re ".")) (re.++ (re.+ (re.union (re.range "a" "z") (re.union (re.range "A" "Z") (re.union (re.range "0" "9") (str.to.re "_"))))) (re.diff (re.range "\x01" "\xff") (str.to.re "_"))))))))) (re.++ (str.to.re "@") ((_ re.capture 3) (re.++ (re.+ (re.union (re.range "a" "z") (re.range "0" "9"))) (re.++ (str.to.re ".") ((_ re.capture 4) (re.union ((_ re.loop 2 3) (re.range "a" "z")) (re.++ ((_ re.loop 2 3) (re.range "a" "z")) (re.++ (str.to.re ".") ((_ re.loop 2 3) (re.range "a" "z"))))))))))) re.all)))))	; match == null
(check-sat)
(get-model)
(pop 1)
(exit)
